% demand
num_movements = 44;
loading_factor = [1600, 1100, 850, 1700, 1100, 1750, 1950, 1250, 1850, 1900, 1050, 1750, 850, 1650, 1750, 1600, 1650, 1550, 1050, 1150, 850, 1700, 1350, 2000, 1300, 1850, 900, 1250, 1950, 1200, 1250, 2000, 850, 1300, 1800, 1450, 800, 1400, 2000, 850, 1250, 900, 800, 1100];
pickup_time = [0, 0, 0, 0, 0, 0, 0, 1, 1, 1, 2, 2, 3, 3, 3, 4, 4, 4, 4, 4, 5, 5, 5, 5, 5, 6, 6, 6, 6, 7, 9, 9, 9, 9, 10, 10, 10, 10, 11, 11, 11, 11, 11, 11];
delivery_time = [1, 1, 4, 1, 2, 2, 2, 4, 5, 2, 4, 4, 4, 5, 4, 6, 5, 5, 10, 8, 9, 6, 6, 11, 6, 11, 8, 7, 9, 9, 10, 10, 11, 10, 11, 11, 11, 12, 12, 12, 12, 12, 12, 12];

% transporter definition
total_capacity = 11000;
num_decks = 4;
capacity = [3000, 3000, 1000, 4000];

% ways out of decks
num_ways_out = 2;
paths_out = array3d(decks, ways_out, decks, [
% ways out of deck d1
2, 4, 0, 0, 3, 4, 0, 0, 

% ways out of deck d2
4, 0, 0, 0, 0, 0, 0, 0,	

% ways out of deck d3
4, 0, 0, 0, 0, 0, 0, 0,	

% ways out of deck d4
0, 0, 0, 0,	0, 0, 0, 0,	

]);

